NAME : eil31
COMMENT : (Eilon et al.)
TYPE : CVRP
DIMENSION : 6
EDGE_WEIGHT_TYPE : EXPLICIT
EDGE_WEIGHT_FORMAT: LOWER_ROW 
DISPLAY_DATA_TYPE: NO_DISPLAY
CAPACITY : 100
EDGE_WEIGHT_SECTION
	28	31	20	25	34	21	29	26	20	38	20	32	30	27	25
DEMAND_SECTION
1 0
2 37
3 35  
4 30   
5 25  
6 32
DEPOT_SECTION
1
-1
EOF
